c WARNING: for repeatability, setting FPU to use double precision
d VARIABLES            109614       
d CONSTRAINTS          492477       
c ============================[ Problem Statistics ]=============================
c |                                                                             |
c |  Number of variables:        109614                                         |
c |  Number of clauses:          492477                                         |
c |  Parse time:                   0.07 s                                       |
c |                                                                             |
c ============================[ Search Statistics ]==============================
c | Conflicts |          ORIGINAL         |          LEARNT          | Progress |
c |           |    Vars  Clauses Literals |    Limit  Clauses Lit/Cl |          |
c ===============================================================================
c |       100 |   94334   449373  1087666 |   164770      100      7 | 13.940 % |
c |       250 |   94334   449373  1087666 |   181247      250     18 | 13.940 % |
c |       475 |   94334   449373  1087666 |   199371      475     39 | 13.940 % |
c |       812 |   94334   449373  1087666 |   219309      812     38 | 13.940 % |
c |      1318 |   94334   449373  1087666 |   241239     1318     59 | 13.940 % |
c |      2077 |   94334   449373  1087666 |   265363     2077     53 | 13.940 % |
c |      3216 |   94334   449373  1087666 |   291900     3216     49 | 13.940 % |
c |      4924 |   94334   449373  1087666 |   321090     4924     47 | 13.940 % |
c |      7486 |   94334   449373  1087666 |   353199     7486     60 | 13.940 % |
c |     11330 |   94334   449373  1087666 |   388519    11330     61 | 13.940 % |
c |     17096 |   94334   449373  1087666 |   427371    17096     61 | 13.940 % |
c |     25745 |   94334   449373  1087666 |   470108    25745     62 | 13.940 % |
c |     38719 |   94334   449373  1087666 |   517119    38719     57 | 13.940 % |
c |     58180 |   94334   449373  1087666 |   568831    58180     54 | 13.940 % |
c |     87372 |   94333   449363  1087643 |   625714    87361     51 | 13.941 % |
c ===============================================================================
c restarts              : 316
c conflicts             : 116448         (4179 /sec)
c decisions             : 325628         (0.00 % random) (11687 /sec)
c propagations          : 129121162      (4634354 /sec)
c conflict literals     : 5698621        (32.67 % deleted)
d RESTARTS             316
d FAILURES             116448       
d NODES                325628       
d BACKTRACKS           325628       
d PROPAGATIONS         129121162    
d NOGOODSIZE           48.94 
d MEMORY               68.00 
d TIME                 27.8617 

s UNSATISFIABLE
